TWTProject/tmp/dReal_synth_tmp_task0_2_33.smt2.model
delta-sat with the following box:
	mode_0 : [1, 1];
	mode_1 : [5, 5];
	mode_2 : [2, 2];
	tau_0_0 : [0, 0];
	tau_0_t : [1, 1];
	tau_1_0 : [0, 0];
	tau_1_t : [1, 1];
	tau_2_0 : [0, 0];
	tau_2_t : [0.9307936429977417, 0.9317089468240738];
	time_0 : [1, 1];
	time_1 : [1, 1];
	time_2 : [0.9307936429977417, 0.9317089468240738];
	x1_0_0 : [6.2358, 6.2358];
	x1_0_t : [5.998479647282396, 5.998479647282408];
	x1_1_0 : [5.998479647282396, 5.998479647282408];
	x1_1_t : [3.593273062382199, 3.593273062382222];
	x1_2_0 : [3.593273062382199, 3.593273062382222];
	x1_2_t : [3.920947485013264, 3.921231005032963];
	x2_0_0 : [3.1673, 3.1673];
	x2_0_t : [4.220740677433555, 4.220740677433565];
	x2_1_0 : [4.220740677433555, 4.220740677433565];
	x2_1_t : [4.981862605762469, 4.981862605762496];
	x2_2_0 : [4.981862605762469, 4.981862605762496];
	x2_2_t : [5.5, 5.500473988094965];
	x3_0_0 : [3.6271, 3.6271];
	x3_0_t : [4.861169971923235, 4.861169971923245];
	x3_1_0 : [4.861169971923235, 4.861169971923245];
	x3_1_t : [6.058533985695576, 6.058533985695603];
	x3_2_0 : [6.058533985695576, 6.058533985695603];
	x3_2_t : [5.949003598460078, 5.94906913401629]                             CNF_309_259 : T
                             CNF_309_246 : T
                             CNF_309_233 : T
                             CNF_309_300 : F
                             CNF_309_295 : T
                             CNF_309_291 : F
                             CNF_309_287 : F
                             CNF_309_283 : F
                             CNF_309_278 : F
                             CNF_309_271 : F
                             CNF_309_264 : F
                             CNF_428_419 : F
                             CNF_428_414 : F
                             CNF_428_408 : F
                             CNF_428_403 : F
                             CNF_428_394 : T
                             CNF_428_389 : F
                             CNF_428_381 : F
                             CNF_428_374 : F
                             CNF_553_544 : F
                             CNF_553_541 : T
                             CNF_553_537 : F
                             CNF_553_534 : F
                             CNF_553_527 : F
                             CNF_553_524 : F
                             CNF_553_518 : F
                             CNF_553_513 : F
